(set-logic QF_UF)
(declare-fun A0 () Bool)
(declare-fun A1 () Bool)
(declare-fun A2 () Bool)
(declare-fun A3 () Bool)
(declare-fun A4 () Bool)
(declare-fun A5 () Bool)
(declare-fun A6 () Bool)
(declare-fun A7 () Bool)
(declare-fun A8 () Bool)
(declare-fun A9 () Bool)
(declare-fun A10 () Bool)
(declare-fun A11 () Bool)
(declare-fun A12 () Bool)
(declare-fun A13 () Bool)
(declare-fun A14 () Bool)
(declare-fun A15 () Bool)
(declare-fun A16 () Bool)
(declare-fun A17 () Bool)
(declare-fun A18 () Bool)
(declare-fun A19 () Bool)
(declare-fun A20 () Bool)
(declare-fun A21 () Bool)
(declare-fun A22 () Bool)
(declare-fun A23 () Bool)
(declare-fun A24 () Bool)
(assert (let ((.def_0 (not A20))) (let ((.def_1 (not A7))) (let ((.def_2 (and .def_1 .def_0))) (let ((.def_3 (not .def_2))) (let ((.def_4 (not A17))) (let ((.def_5 (and A4 .def_4))) (let ((.def_6 (not .def_5))) (let ((.def_7 (and .def_6 .def_3))) (let ((.def_8 (not A6))) (let ((.def_9 (not A23))) (let ((.def_10 (or .def_9 .def_8))) (let ((.def_11 (not .def_10))) (let ((.def_12 (not A9))) (let ((.def_13 (or A3 .def_12))) (let ((.def_14 (and .def_13 .def_11))) (let ((.def_15 (or .def_14 .def_7))) (let ((.def_16 (not .def_15))) (let ((.def_17 (= A10 A14))) (let ((.def_18 (not .def_17))) (let ((.def_19 (not A10))) (let ((.def_20 (not A21))) (let ((.def_21 (or .def_20 .def_19))) (let ((.def_22 (or .def_21 .def_18))) (let ((.def_23 (not .def_22))) (let ((.def_24 (not A14))) (let ((.def_25 (and A15 .def_24))) (let ((.def_26 (not A4))) (let ((.def_27 (and .def_26 A0))) (let ((.def_28 (not .def_27))) (let ((.def_29 (or .def_28 .def_25))) (let ((.def_30 (not .def_29))) (let ((.def_31 (or .def_30 .def_23))) (let ((.def_32 (not .def_31))) (let ((.def_33 (or .def_32 .def_16))) (let ((.def_34 (not A24))) (let ((.def_35 (= .def_20 .def_34))) (let ((.def_36 (not .def_35))) (let ((.def_37 (and A15 .def_34))) (let ((.def_38 (not .def_37))) (let ((.def_39 (and .def_38 .def_36))) (let ((.def_40 (not A1))) (let ((.def_41 (not A19))) (let ((.def_42 (or .def_41 .def_40))) (let ((.def_43 (not .def_42))) (let ((.def_44 (or A13 A5))) (let ((.def_45 (or .def_44 .def_43))) (let ((.def_46 (not .def_45))) (let ((.def_47 (and .def_46 .def_39))) (let ((.def_48 (not .def_47))) (let ((.def_49 (not A5))) (let ((.def_50 (not A3))) (let ((.def_51 (and .def_50 .def_49))) (let ((.def_52 (or .def_4 .def_4))) (let ((.def_53 (not .def_52))) (let ((.def_54 (or .def_53 .def_51))) (let ((.def_55 (not .def_54))) (let ((.def_56 (and .def_9 A19))) (let ((.def_57 (and .def_0 .def_40))) (let ((.def_58 (and .def_57 .def_56))) (let ((.def_59 (and .def_58 .def_55))) (let ((.def_60 (not .def_59))) (let ((.def_61 (and .def_60 .def_48))) (let ((.def_62 (and .def_61 .def_33))) (let ((.def_63 (not .def_62))) (let ((.def_64 (= .def_20 .def_50))) (let ((.def_65 (and A10 A4))) (let ((.def_66 (and .def_65 .def_64))) (let ((.def_67 (not A22))) (let ((.def_68 (or A19 .def_67))) (let ((.def_69 (not A0))) (let ((.def_70 (and .def_69 A9))) (let ((.def_71 (or .def_70 .def_68))) (let ((.def_72 (not .def_71))) (let ((.def_73 (and .def_72 .def_66))) (let ((.def_74 (not .def_73))) (let ((.def_75 (not A15))) (let ((.def_76 (and .def_41 .def_75))) (let ((.def_77 (not .def_76))) (let ((.def_78 (and .def_69 A2))) (let ((.def_79 (not .def_78))) (let ((.def_80 (and .def_79 .def_77))) (let ((.def_81 (and .def_8 .def_1))) (let ((.def_82 (not .def_81))) (let ((.def_83 (and A17 .def_67))) (let ((.def_84 (not .def_83))) (let ((.def_85 (and .def_84 .def_82))) (let ((.def_86 (or .def_85 .def_80))) (let ((.def_87 (not .def_86))) (let ((.def_88 (and .def_87 .def_74))) (let ((.def_89 (not .def_88))) (let ((.def_90 (or A7 A17))) (let ((.def_91 (= A19 A7))) (let ((.def_92 (not .def_91))) (let ((.def_93 (or .def_92 .def_90))) (let ((.def_94 (not .def_93))) (let ((.def_95 (not A13))) (let ((.def_96 (or .def_34 .def_95))) (let ((.def_97 (or A9 A19))) (let ((.def_98 (not .def_97))) (let ((.def_99 (and .def_98 .def_96))) (let ((.def_100 (and .def_99 .def_94))) (let ((.def_101 (and A8 .def_67))) (let ((.def_102 (not A12))) (let ((.def_103 (and .def_20 .def_102))) (let ((.def_104 (or .def_103 .def_101))) (let ((.def_105 (and .def_41 .def_0))) (let ((.def_106 (and .def_49 A16))) (let ((.def_107 (or .def_106 .def_105))) (let ((.def_108 (= .def_107 .def_104))) (let ((.def_109 (not .def_108))) (let ((.def_110 (or .def_109 .def_100))) (let ((.def_111 (not .def_110))) (let ((.def_112 (or .def_111 .def_89))) (let ((.def_113 (not .def_112))) (let ((.def_114 (or .def_113 .def_63))) (let ((.def_115 (and A20 .def_12))) (let ((.def_116 (or A6 .def_40))) (let ((.def_117 (not .def_116))) (let ((.def_118 (or .def_117 .def_115))) (let ((.def_119 (not .def_118))) (let ((.def_120 (or A0 .def_69))) (let ((.def_121 (not .def_120))) (let ((.def_122 (or .def_67 A18))) (let ((.def_123 (not .def_122))) (let ((.def_124 (= .def_123 .def_121))) (let ((.def_125 (= .def_124 .def_119))) (let ((.def_126 (not .def_125))) (let ((.def_127 (or .def_0 A9))) (let ((.def_128 (or A22 .def_20))) (let ((.def_129 (= .def_128 .def_127))) (let ((.def_130 (not A2))) (let ((.def_131 (or .def_130 A20))) (let ((.def_132 (or A17 .def_95))) (let ((.def_133 (and .def_132 .def_131))) (let ((.def_134 (not .def_133))) (let ((.def_135 (or .def_134 .def_129))) (let ((.def_136 (= .def_135 .def_126))) (let ((.def_137 (not .def_136))) (let ((.def_138 (and A19 .def_67))) (let ((.def_139 (not .def_138))) (let ((.def_140 (and A4 .def_20))) (let ((.def_141 (or .def_140 .def_139))) (let ((.def_142 (or .def_19 A4))) (let ((.def_143 (not .def_142))) (let ((.def_144 (and A10 A20))) (let ((.def_145 (not .def_144))) (let ((.def_146 (or .def_145 .def_143))) (let ((.def_147 (and .def_146 .def_141))) (let ((.def_148 (not .def_147))) (let ((.def_149 (or A10 .def_102))) (let ((.def_150 (not .def_149))) (let ((.def_151 (or .def_50 A8))) (let ((.def_152 (and .def_151 .def_150))) (let ((.def_153 (not A18))) (let ((.def_154 (or .def_12 .def_153))) (let ((.def_155 (and .def_41 A14))) (let ((.def_156 (not .def_155))) (let ((.def_157 (and .def_156 .def_154))) (let ((.def_158 (= .def_157 .def_152))) (let ((.def_159 (not .def_158))) (let ((.def_160 (or .def_159 .def_148))) (let ((.def_161 (not .def_160))) (let ((.def_162 (or .def_161 .def_137))) (let ((.def_163 (not .def_162))) (let ((.def_164 (and A3 A16))) (let ((.def_165 (and A24 A8))) (let ((.def_166 (not .def_165))) (let ((.def_167 (and .def_166 .def_164))) (let ((.def_168 (not .def_167))) (let ((.def_169 (or A9 .def_153))) (let ((.def_170 (not .def_169))) (let ((.def_171 (and A22 A18))) (let ((.def_172 (not .def_171))) (let ((.def_173 (or .def_172 .def_170))) (let ((.def_174 (not .def_173))) (let ((.def_175 (or .def_174 .def_168))) (let ((.def_176 (not .def_175))) (let ((.def_177 (and .def_69 A12))) (let ((.def_178 (not .def_177))) (let ((.def_179 (not A11))) (let ((.def_180 (or A22 .def_179))) (let ((.def_181 (and .def_180 .def_178))) (let ((.def_182 (not .def_181))) (let ((.def_183 (and .def_0 .def_24))) (let ((.def_184 (not .def_183))) (let ((.def_185 (or .def_4 .def_67))) (let ((.def_186 (or .def_185 .def_184))) (let ((.def_187 (= .def_186 .def_182))) (let ((.def_188 (and .def_187 .def_176))) (let ((.def_189 (and A13 A21))) (let ((.def_190 (not .def_189))) (let ((.def_191 (and A16 A23))) (let ((.def_192 (and .def_191 .def_190))) (let ((.def_193 (not .def_192))) (let ((.def_194 (or .def_50 .def_153))) (let ((.def_195 (not .def_194))) (let ((.def_196 (and A16 A14))) (let ((.def_197 (and .def_196 .def_195))) (let ((.def_198 (or .def_197 .def_193))) (let ((.def_199 (not .def_198))) (let ((.def_200 (and A11 A3))) (let ((.def_201 (or A15 A7))) (let ((.def_202 (and .def_201 .def_200))) (let ((.def_203 (and A19 .def_4))) (let ((.def_204 (not .def_203))) (let ((.def_205 (= A18 A7))) (let ((.def_206 (or .def_205 .def_204))) (let ((.def_207 (not .def_206))) (let ((.def_208 (and .def_207 .def_202))) (let ((.def_209 (and .def_208 .def_199))) (let ((.def_210 (not .def_209))) (let ((.def_211 (and .def_210 .def_188))) (let ((.def_212 (and .def_211 .def_163))) (let ((.def_213 (and .def_212 .def_114))) (let ((.def_214 (or A20 A6))) (let ((.def_215 (not .def_214))) (let ((.def_216 (or .def_75 A10))) (let ((.def_217 (not .def_216))) (let ((.def_218 (or .def_217 .def_215))) (let ((.def_219 (or .def_20 A9))) (let ((.def_220 (not .def_219))) (let ((.def_221 (and A15 A16))) (let ((.def_222 (and .def_221 .def_220))) (let ((.def_223 (not .def_222))) (let ((.def_224 (and .def_223 .def_218))) (let ((.def_225 (or A0 A16))) (let ((.def_226 (not .def_225))) (let ((.def_227 (or A12 A15))) (let ((.def_228 (and .def_227 .def_226))) (let ((.def_229 (not .def_228))) (let ((.def_230 (not A8))) (let ((.def_231 (or .def_230 .def_0))) (let ((.def_232 (not .def_231))) (let ((.def_233 (and .def_4 A8))) (let ((.def_234 (not .def_233))) (let ((.def_235 (or .def_234 .def_232))) (let ((.def_236 (or .def_235 .def_229))) (let ((.def_237 (not .def_236))) (let ((.def_238 (or .def_237 .def_224))) (let ((.def_239 (not .def_238))) (let ((.def_240 (or .def_34 .def_12))) (let ((.def_241 (not .def_240))) (let ((.def_242 (= A20 .def_179))) (let ((.def_243 (not .def_242))) (let ((.def_244 (or .def_243 .def_241))) (let ((.def_245 (or .def_41 .def_26))) (let ((.def_246 (not .def_245))) (let ((.def_247 (or A10 A8))) (let ((.def_248 (not .def_247))) (let ((.def_249 (and .def_248 .def_246))) (let ((.def_250 (and .def_249 .def_244))) (let ((.def_251 (and .def_1 A4))) (let ((.def_252 (not .def_251))) (let ((.def_253 (= .def_196 .def_252))) (let ((.def_254 (or A6 .def_8))) (let ((.def_255 (not .def_254))) (let ((.def_256 (or .def_26 A24))) (let ((.def_257 (not .def_256))) (let ((.def_258 (or .def_257 .def_255))) (let ((.def_259 (or .def_258 .def_253))) (let ((.def_260 (= .def_259 .def_250))) (let ((.def_261 (and .def_260 .def_239))) (let ((.def_262 (not .def_261))) (let ((.def_263 (and .def_130 A15))) (let ((.def_264 (not .def_263))) (let ((.def_265 (= .def_230 A2))) (let ((.def_266 (or .def_265 .def_264))) (let ((.def_267 (or A12 A8))) (let ((.def_268 (or .def_12 A15))) (let ((.def_269 (or .def_268 .def_267))) (let ((.def_270 (not .def_269))) (let ((.def_271 (or .def_270 .def_266))) (let ((.def_272 (not .def_271))) (let ((.def_273 (or .def_50 A23))) (let ((.def_274 (not .def_273))) (let ((.def_275 (and .def_12 .def_102))) (let ((.def_276 (not .def_275))) (let ((.def_277 (and .def_276 .def_274))) (let ((.def_278 (or .def_50 .def_102))) (let ((.def_279 (and .def_153 A6))) (let ((.def_280 (not .def_279))) (let ((.def_281 (and .def_280 .def_278))) (let ((.def_282 (or .def_281 .def_277))) (let ((.def_283 (not .def_282))) (let ((.def_284 (= .def_283 .def_272))) (let ((.def_285 (not .def_284))) (let ((.def_286 (and A9 A24))) (let ((.def_287 (not .def_286))) (let ((.def_288 (and A23 A3))) (let ((.def_289 (not .def_288))) (let ((.def_290 (and .def_289 .def_287))) (let ((.def_291 (not .def_290))) (let ((.def_292 (or .def_230 .def_130))) (let ((.def_293 (or .def_0 .def_67))) (let ((.def_294 (and .def_293 .def_292))) (let ((.def_295 (not .def_294))) (let ((.def_296 (or .def_295 .def_291))) (let ((.def_297 (not .def_296))) (let ((.def_298 (and A10 A5))) (let ((.def_299 (not .def_298))) (let ((.def_300 (or A9 .def_75))) (let ((.def_301 (and .def_300 .def_299))) (let ((.def_302 (not .def_301))) (let ((.def_303 (= A23 .def_102))) (let ((.def_304 (not .def_303))) (let ((.def_305 (= .def_153 .def_1))) (let ((.def_306 (and .def_305 .def_304))) (let ((.def_307 (not .def_306))) (let ((.def_308 (or .def_307 .def_302))) (let ((.def_309 (not .def_308))) (let ((.def_310 (and .def_309 .def_297))) (let ((.def_311 (and .def_310 .def_285))) (let ((.def_312 (not .def_311))) (let ((.def_313 (= .def_312 .def_262))) (let ((.def_314 (= .def_153 .def_179))) (let ((.def_315 (not .def_314))) (let ((.def_316 (and A20 .def_40))) (let ((.def_317 (not .def_316))) (let ((.def_318 (and .def_317 .def_315))) (let ((.def_319 (and A1 .def_26))) (let ((.def_320 (not .def_319))) (let ((.def_321 (and A5 A21))) (let ((.def_322 (or .def_321 .def_320))) (let ((.def_323 (not .def_322))) (let ((.def_324 (or .def_323 .def_318))) (let ((.def_325 (and A8 .def_179))) (let ((.def_326 (and A17 A11))) (let ((.def_327 (not .def_326))) (let ((.def_328 (or .def_327 .def_325))) (let ((.def_329 (not .def_328))) (let ((.def_330 (and A12 A1))) (let ((.def_331 (and A17 A13))) (let ((.def_332 (not .def_331))) (let ((.def_333 (or .def_332 .def_330))) (let ((.def_334 (and .def_333 .def_329))) (let ((.def_335 (not .def_334))) (let ((.def_336 (or .def_335 .def_324))) (let ((.def_337 (and .def_153 A19))) (let ((.def_338 (or A24 A20))) (let ((.def_339 (and .def_338 .def_337))) (let ((.def_340 (or A23 .def_102))) (let ((.def_341 (not .def_340))) (let ((.def_342 (and A12 .def_230))) (let ((.def_343 (and .def_342 .def_341))) (let ((.def_344 (not .def_343))) (let ((.def_345 (= .def_344 .def_339))) (let ((.def_346 (not .def_345))) (let ((.def_347 (and A12 A23))) (let ((.def_348 (not .def_347))) (let ((.def_349 (or A21 A22))) (let ((.def_350 (and .def_349 .def_348))) (let ((.def_351 (not .def_350))) (let ((.def_352 (= .def_49 A10))) (let ((.def_353 (or A12 A23))) (let ((.def_354 (= .def_353 .def_352))) (let ((.def_355 (or .def_354 .def_351))) (let ((.def_356 (and .def_355 .def_346))) (let ((.def_357 (not .def_356))) (let ((.def_358 (or .def_357 .def_336))) (let ((.def_359 (and A6 A20))) (let ((.def_360 (not .def_359))) (let ((.def_361 (or A14 A14))) (let ((.def_362 (and .def_361 .def_360))) (let ((.def_363 (and .def_20 .def_24))) (let ((.def_364 (and A9 A20))) (let ((.def_365 (or .def_364 .def_363))) (let ((.def_366 (or .def_365 .def_362))) (let ((.def_367 (= A23 A12))) (let ((.def_368 (not .def_367))) (let ((.def_369 (or .def_49 A10))) (let ((.def_370 (not .def_369))) (let ((.def_371 (or .def_370 .def_368))) (let ((.def_372 (or .def_24 A12))) (let ((.def_373 (not .def_372))) (let ((.def_374 (or A9 A8))) (let ((.def_375 (not .def_374))) (let ((.def_376 (and .def_375 .def_373))) (let ((.def_377 (= .def_376 .def_371))) (let ((.def_378 (not .def_377))) (let ((.def_379 (and .def_378 .def_366))) (let ((.def_380 (and .def_12 A24))) (let ((.def_381 (not .def_380))) (let ((.def_382 (not A16))) (let ((.def_383 (and .def_382 A6))) (let ((.def_384 (and .def_383 .def_381))) (let ((.def_385 (= A24 .def_19))) (let ((.def_386 (not .def_385))) (let ((.def_387 (and A7 .def_102))) (let ((.def_388 (or .def_387 .def_386))) (let ((.def_389 (and .def_388 .def_384))) (let ((.def_390 (and A18 .def_69))) (let ((.def_391 (not .def_390))) (let ((.def_392 (and .def_40 .def_0))) (let ((.def_393 (and .def_392 .def_391))) (let ((.def_394 (and A12 .def_20))) (let ((.def_395 (not .def_394))) (let ((.def_396 (or .def_67 A23))) (let ((.def_397 (not .def_396))) (let ((.def_398 (and .def_397 .def_395))) (let ((.def_399 (not .def_398))) (let ((.def_400 (or .def_399 .def_393))) (let ((.def_401 (not .def_400))) (let ((.def_402 (and .def_401 .def_389))) (let ((.def_403 (and .def_402 .def_379))) (let ((.def_404 (or .def_403 .def_358))) (let ((.def_405 (not .def_404))) (let ((.def_406 (and .def_405 .def_313))) (let ((.def_407 (and .def_406 .def_213))) .def_407)))))))))))))))))))))))))))))))))))))))))))))))))))))))))))))))))))))))))))))))))))))))))))))))))))))))))))))))))))))))))))))))))))))))))))))))))))))))))))))))))))))))))))))))))))))))))))))))))))))))))))))))))))))))))))))))))))))))))))))))))))))))))))))))))))))))))))))))))))))))))))))))))))))))))))))))))))))))))))))))))))))))))))))))))))))))))))))))))))))))))))))))))))))))))))))))))))))))))))))))))))))))))
(check-sat)
